(declare-const main____CPAchecker_TMP_3 Int)
(declare-const |K:245:246:260:278:338| Int)
(declare-const |__VERIFIER_assert__cond___16':155:168:173:272:332| Int)
(declare-const |K:165:166:171:270:330| Int)
(declare-const |main____CPAchecker_TMP_3':226:255:269:287:347| Int)
(declare-const |__VERIFIER_assert__cond___10':225:249:263:281:341| Int)
(declare-const havoc Int)
(declare-const __VERIFIER_assert__cond___11 Int)
(declare-const |__VERIFIER_assert__cond___14':230:251:265:283:343| Int)
(declare-const |havoc:26:64:212:288:348| Int)
(declare-const |havoc:12:62:258:276:336| Int)
(declare-const |phi_main____CPAchecker_TMP_1:256:257:275:335| Int)
(declare-const |__VERIFIER_assert__cond___15':154:169:174:273:333| Int)
(declare-const |havoc:9:61:176:329| Int)
(declare-const |havoc:21:63:259:277:337| Int)
(declare-const __VERIFIER_assert__cond___15 Int)
(declare-const __VERIFIER_assert__cond___16 Int)
(declare-const |main__cp':152:170:175:274:334| Int)
(declare-const __VERIFIER_assert__cond___12 Int)
(declare-const main____CPAchecker_TMP_1 Int)
(declare-const |havoc:1| Int)
(declare-const |main__cp':152:248:262:280:340| Int)
(declare-const |main____CPAchecker_TMP_1':153:167:172:271:331| Int)
(declare-const __VERIFIER_assert__cond___13 Int)
(declare-const |havoc:2| Int)
(declare-const |main__c':223:250:264:282:342| Int)
(declare-const __VERIFIER_assert__cond___10 Int)
(declare-const |__VERIFIER_assert__cond___11':227:254:268:286:346| Int)
(declare-const __VERIFIER_assert__cond___9 Int)
(declare-const __VERIFIER_assert__cond___14 Int)
(declare-const |__VERIFIER_assert__cond___12':228:253:267:285:345| Int)
(declare-const |__VERIFIER_assert__cond___9':224:247:261:279:339| Int)
(declare-const |__VERIFIER_assert__cond___13':229:252:266:284:344| Int)
(assert (and (<= (+ havoc -1000000) 0) (<= (+ (- havoc) -1000000) 0)
               (<= (+ |havoc:1| -1000000) 0)
               (<= (+ (- |havoc:1|) -1000000) 0)
               (<= (+ |havoc:2| -1000000) 0)
               (<= (+ (- |havoc:2|) -1000000) 0) (< (- havoc) 0)
               (< (- |havoc:1|) 0) (<= (- |havoc:2|) 0) (not (= |havoc:2| 0))
               (<= (+ |havoc:2| (- havoc) 1) 0)
               (not (= (ite (< (+ |havoc:2| (- havoc) -1) 0) 1 0) 0))
               (not (= (ite (<= (+ (- |havoc:2|) 1) 0) 1 0) 0))
               (not (= |havoc:9:61:176:329| 0))
               (not (= (ite (< (+ |havoc:2| (- havoc)) 0) 1 0) 0))
               (not (= (ite (<= (- |havoc:2|) 0) 1 0) 0))
               (or (not (and (<= (- |K:165:166:171:270:330|) 0)
                               (<= |K:165:166:171:270:330| 0)))
                     (= (+ (- main____CPAchecker_TMP_1)
                             |main____CPAchecker_TMP_1':153:167:172:271:331|) 0))
               (or (not (<= (+ (- |K:165:166:171:270:330|) 1) 0))
                     (= |main____CPAchecker_TMP_1':153:167:172:271:331| 0))
               (or (not (and (<= (- |K:165:166:171:270:330|) 0)
                               (<= |K:165:166:171:270:330| 0)))
                     (= (+ (- __VERIFIER_assert__cond___16)
                             |__VERIFIER_assert__cond___16':155:168:173:272:332|) 0))
               (or (not (<= (+ (- |K:165:166:171:270:330|) 1) 0))
                     (= (+ |__VERIFIER_assert__cond___16':155:168:173:272:332|
                             -1) 0))
               (or (not (and (<= (- |K:165:166:171:270:330|) 0)
                               (<= |K:165:166:171:270:330| 0)))
                     (= (+ (- __VERIFIER_assert__cond___15)
                             |__VERIFIER_assert__cond___15':154:169:174:273:333|) 0))
               (or (not (<= (+ (- |K:165:166:171:270:330|) 1) 0))
                     (= (+ |__VERIFIER_assert__cond___15':154:169:174:273:333|
                             -1) 0))
               (or (not (<= (- |K:165:166:171:270:330|) 0))
                     (= (+ |main__cp':152:170:175:274:334|
                             (- |K:165:166:171:270:330|) (- |havoc:2|)) 0))
               (or (and (= |K:165:166:171:270:330| 0)
                          (= (+ __VERIFIER_assert__cond___16
                                  (- |__VERIFIER_assert__cond___16':155:168:173:272:332|)) 0)
                          (= (+ __VERIFIER_assert__cond___15
                                  (- |__VERIFIER_assert__cond___15':154:169:174:273:333|)) 0)
                          (= (+ main____CPAchecker_TMP_1
                                  (- |main____CPAchecker_TMP_1':153:167:172:271:331|)) 0)
                          (= (+ (- |main__cp':152:170:175:274:334|) |havoc:2|) 0))
                     (and (<= (+ (- |K:165:166:171:270:330|) 1) 0)
                            (<= (+ |havoc:2| (- havoc) 2) 0)
                            (<= (+ (- |havoc:2|) 1) 0)
                            (= (+ |__VERIFIER_assert__cond___16':155:168:173:272:332|
                                    -1) 0)
                            (= (+ |__VERIFIER_assert__cond___15':154:169:174:273:333|
                                    -1) 0)
                            (= |main____CPAchecker_TMP_1':153:167:172:271:331| 0)
                            (<= (+ |main__cp':152:170:175:274:334| (- 
                                     havoc) 1) 0)
                            (<= (+ (- |main__cp':152:170:175:274:334|) 2) 0)))
               (<= (- |K:165:166:171:270:330|) 0) (< (- havoc) 0)
               (< (- |main__cp':152:170:175:274:334|) 0)
               (or (and (<= (+ (- |main__cp':152:170:175:274:334|) havoc -1) 0)
                          (<= (+ |main__cp':152:170:175:274:334| (- havoc) 1) 0)
                          (= (+ (- |phi_main____CPAchecker_TMP_1:256:257:275:335|)
                                  |main____CPAchecker_TMP_1':153:167:172:271:331|) 0))
                     (and (or (< (+ |main__cp':152:170:175:274:334| (- 
                                      havoc) 1) 0)
                                (< (+ (- |main__cp':152:170:175:274:334|)
                                        havoc -1) 0))
                            (not (= |havoc:12:62:258:276:336| 0))
                            (= (+ |havoc:12:62:258:276:336|
                                    (- |phi_main____CPAchecker_TMP_1:256:257:275:335|)) 0)))
               (not (= (ite (< (+ |main__cp':152:170:175:274:334| (- havoc)) 0)
                            1 0) 0))
               (not (= (ite (<= (- |main__cp':152:170:175:274:334|) 0) 1 0) 0))
               (not (= (+ |main__cp':152:170:175:274:334| (- havoc) 1) 0))
               (not (= (ite (< (+ |main__cp':152:170:175:274:334| (- havoc) 1) 0)
                            1 0) 0))
               (not (= (ite (<= (+ (- |main__cp':152:170:175:274:334|) -1) 0)
                            1 0) 0))
               (not (= (+ |main__cp':152:170:175:274:334| (- havoc) 2) 0))
               (not (= |havoc:21:63:259:277:337| 0))
               (not (= (ite (< (+ |main__cp':152:170:175:274:334| (- havoc) 1) 0)
                            1 0) 0))
               (not (= (ite (<= (+ (- |main__cp':152:170:175:274:334|) -1) 0)
                            1 0) 0))
               (or (not (and (<= (- |K:245:246:260:278:338|) 0)
                               (<= |K:245:246:260:278:338| 0)))
                     (= (+ (- __VERIFIER_assert__cond___9)
                             |__VERIFIER_assert__cond___9':224:247:261:279:339|) 0))
               (or (not (<= (+ (- |K:245:246:260:278:338|) 1) 0))
                     (= (+ |__VERIFIER_assert__cond___9':224:247:261:279:339|
                             -1) 0))
               (or (not (<= (- |K:245:246:260:278:338|) 0))
                     (= (+ |main__cp':152:248:262:280:340|
                             (- |K:245:246:260:278:338|)
                             (- |main__cp':152:170:175:274:334|) -1) 0))
               (or (not (and (<= (- |K:245:246:260:278:338|) 0)
                               (<= |K:245:246:260:278:338| 0)))
                     (= (+ (- __VERIFIER_assert__cond___10)
                             |__VERIFIER_assert__cond___10':225:249:263:281:341|) 0))
               (or (not (<= (+ (- |K:245:246:260:278:338|) 1) 0))
                     (= (+ |__VERIFIER_assert__cond___10':225:249:263:281:341|
                             -1) 0))
               (or (not (<= (- |K:245:246:260:278:338|) 0))
                     (<= (+ |main__c':223:250:264:282:342|
                              (- |K:245:246:260:278:338|)) 0))
               (or (not (<= (- |K:245:246:260:278:338|) 0))
                     (<= (- |main__c':223:250:264:282:342|) 0))
               (or (and (= |K:245:246:260:278:338| 0)
                          (= (+ (- |__VERIFIER_assert__cond___14':230:251:265:283:343|)
                                  __VERIFIER_assert__cond___14) 0)
                          (= (+ (- |__VERIFIER_assert__cond___13':229:252:266:284:344|)
                                  __VERIFIER_assert__cond___13) 0)
                          (= (+ (- |__VERIFIER_assert__cond___12':228:253:267:285:345|)
                                  __VERIFIER_assert__cond___12) 0)
                          (= (+ (- |__VERIFIER_assert__cond___11':227:254:268:286:346|)
                                  __VERIFIER_assert__cond___11) 0)
                          (= (+ (- |main____CPAchecker_TMP_3':226:255:269:287:347|)
                                  main____CPAchecker_TMP_3) 0)
                          (= (+ __VERIFIER_assert__cond___10
                                  (- |__VERIFIER_assert__cond___10':225:249:263:281:341|)) 0)
                          (= (+ __VERIFIER_assert__cond___9
                                  (- |__VERIFIER_assert__cond___9':224:247:261:279:339|)) 0)
                          (= (- |main__c':223:250:264:282:342|) 0)
                          (= (+ (- |main__cp':152:248:262:280:340|)
                                  |main__cp':152:170:175:274:334| 1) 0))
                     (and (<= (+ (- |K:245:246:260:278:338|) 1) 0)
                            (<= (+ |main__cp':152:170:175:274:334| (- 
                                     havoc) 3) 0) (<= (+ (- |havoc:1|) 2) 0)
                            (<= (- |main__cp':152:170:175:274:334|) 0)
                            (= (+ |__VERIFIER_assert__cond___10':225:249:263:281:341|
                                    -1) 0)
                            (= (+ |__VERIFIER_assert__cond___9':224:247:261:279:339|
                                    -1) 0)
                            (<= (+ |main__cp':152:248:262:280:340| (- 
                                     havoc) 1) 0)
                            (<= (+ |main__c':223:250:264:282:342|
                                     (- |havoc:1|) 1) 0)
                            (<= (+ (- |havoc:1|) 2) 0)
                            (<= (- |main__c':223:250:264:282:342|) 0)
                            (<= (+ (- |main__cp':152:248:262:280:340|) 2) 0)))
               (<= (- |K:245:246:260:278:338|) 0) (< (- |havoc:1|) 0)
               (<= (- |main__c':223:250:264:282:342|) 0) (< (- havoc) 0)
               (< (- |main__cp':152:248:262:280:340|) 0)
               (or (< (+ |main__cp':152:248:262:280:340| (- havoc) 1) 0)
                     (< (+ (- |main__cp':152:248:262:280:340|) havoc -1) 0))
               (< (+ |main__c':223:250:264:282:342| (- |havoc:1|) 1) 0)
               (not (= (ite (< (+ |main__cp':152:248:262:280:340| (- havoc)) 0)
                            1 0) 0))
               (not (= (ite (<= (- |main__cp':152:248:262:280:340|) 0) 1 0) 0))
               (not (= |havoc:26:64:212:288:348| 0))
               (not (= (ite (< (+ |main__c':223:250:264:282:342|
                                    (- |havoc:1|) 1) 0)
                            1 0) 0))
               (not (= (ite (<= (+ (- |main__c':223:250:264:282:342|) -1) 0)
                            1 0) 0))
               (= (ite (< (+ |main__cp':152:248:262:280:340| (- havoc)) 0) 1
                       0) 0)))
(check-sat)
